p cnf 9 54
5 -4 -8 3 -7 2 0
-6 -8 -1 0
1 7 5 -3 -8 0
-9 -5 3 0
9 -4 -2 -1 8 -6 3 0
8 9 3 0
8 1 3 -7 -2 0
7 -6 4 0
1 -2 -8 0
2 3 8 0
-9 -4 -2 6 1 8 -5 7 3 0
-6 8 -2 7 -1 -4 9 5 3 0
8 -6 -3 0
9 8 3 0
7 -3 -4 1 -8 0
9 -7 1 0
-4 -9 7 0
-9 -7 2 -6 -4 5 0
-5 4 2 -1 0
4 2 0
3 1 0
4 5 1 -8 -6 0
-1 4 -5 8 2 -7 3 6 -9 0
7 -1 9 0
7 -3 8 0
6 9 -3 -7 5 2 8 0
-8 -1 -3 -7 2 -5 4 0
-1 5 -2 -8 0
-5 -2 0
-3 -7 -6 -5 0
-4 5 6 2 0
6 9 2 7 -4 5 3 0
8 -9 -6 -4 5 2 -3 0
8 5 4 0
6 -2 1 -7 0
-5 1 -2 0
7 2 9 8 -4 0
-9 -3 -5 0
3 5 0
-3 6 -1 -8 0
9 4 2 -6 0
-4 6 -9 -5 -7 0
-1 2 9 0
9 4 3 0
-8 -6 9 -2 -1 0
2 -9 -6 -4 5 -1 3 -7 0
-2 -9 -1 0
-6 -7 9 0
-1 5 8 -3 -6 -7 0
9 -5 -7 0
-6 -5 3 0
7 1 -2 0
-8 -1 2 0
-2 -1 0
